GeneratedTests/Random_9/Random_9_17.tsp
NAME: Random_9_17
TYPE: TSP
DIMENSION: 9
EDGE_WEIGHT_TYPE: EUC_2D
NODE_COORD_SECTION
1 6.4707837 23.195303
2 18.685432 0.36163795
3 4.06734 18.427307
4 26.79293 2.868122
5 20.902702 23.174204
6 1.1070468 10.861416
7 18.09575 4.77272
8 25.773764 23.773943
9 17.237843 0.5797112
EOF
