GeneratedTests/Random_9/Random_9_17.txt
NAME: Random_9_17
TYPE: TSP
DIMENSION: 9
EDGE_WEIGHT_TYPE: EUC_2D
NODE_COORD_SECTION
1 14.935758 4.7528305
2 22.015284 26.303171
3 6.97982 11.571281
4 16.111364 20.04832
5 10.473548 5.589834
6 26.694042 15.957767
7 5.793784 20.207169
8 1.2980545 25.095509
9 24.441528 17.10883
EOF
